networks/zoo_78_397/zoo_78_397-lower.txt
Number of groups: 27
Flow 1: {1 2 0} {2 48 0} 
Flow 2: {1 3 0} {3 49 0} 
Flow 3: {1 4 0} {4 50 0} 
Flow 4: {1 10 0} {10 6 0} {6 5 0} {5 51 0} 
Flow 5: {6 52 0} 
Flow 6: {10 7 0} {7 53 0} 
Flow 7: {10 8 0} {8 54 0} 
Flow 8: {10 9 0} {9 55 0} 
Flow 9: {10 56 0} 
Flow 10: {10 17 0} {17 12 0} {12 58 0} 
Flow 11: {4 13 0} {13 59 0} 
Flow 12: {17 16 0} {16 62 0} 
Flow 13: {17 63 0} 
Flow 14: {1 29 0} {29 18 0} {18 64 0} 
Flow 15: {6 19 0} {19 65 0} 
Flow 16: {17 22 0} {22 68 0} 
Flow 17: {1 23 0} {23 69 0} 
Flow 18: {23 24 0} {24 70 0} 
Flow 19: {13 26 0} {26 72 0} 
Flow 20: {26 27 0} {27 73 0} 
Flow 21: {29 28 0} {28 74 0} 
Flow 22: {29 75 0} 
Flow 23: {1 30 0} {30 76 0} 
Flow 24: {1 31 0} {31 77 0} 
Flow 25: {4 32 0} {32 78 0} 
Flow 26: {2 1 0} {1 47 0} 
Flow 27: {2 3 0} Flow 39: {2 23 0} Flow 44: {23 32 0} Flow 45: {3 1 0} Flow 54: {3 23 0} Flow 55: {4 1 0} Flow 58: {13 6 0} Flow 59: {13 7 0} Flow 60: {13 8 0} Flow 63: {4 31 0} {31 17 0} Flow 64: {13 18 0} Flow 71: {5 6 0} {6 10 0} Flow 72: {10 1 0} Flow 75: {6 13 0} {13 4 0} Flow 76: {5 7 0} Flow 80: {26 16 0} Flow 87: {18 29 0} Flow 88: {18 30 0} Flow 91: {7 10 0} Flow 92: {7 13 0} Flow 102: {8 10 0} Flow 103: {8 13 0} Flow 124: {17 18 0} Flow 126: {17 26 0} Flow 131: {12 17 0} Flow 132: {17 29 0} Flow 133: {17 30 0} Flow 142: {18 12 0} Flow 144: {26 17 0} Flow 147: {16 22 0} Flow 149: {30 24 0} Flow 151: {17 28 0} Flow 156: {16 17 0} {17 10 0} Flow 159: {16 26 0} {26 13 0} Flow 166: {16 18 0} Flow 169: {29 23 0} Flow 173: {17 31 0} Flow 174: {29 32 0} Flow 178: {31 4 0} Flow 200: {29 1 0} Flow 203: {18 13 0} Flow 208: {6 9 0} Flow 209: {18 17 0} Flow 212: {18 16 0} Flow 218: {18 26 0} Flow 223: {18 31 0} Flow 225: {19 6 0} Flow 239: {20 17 0} Flow 241: {21 17 0} Flow 243: {22 17 0} Flow 248: {22 16 0} Flow 257: {23 1 0} Flow 258: {23 3 0} Flow 264: {23 29 0} {29 17 0} Flow 268: {23 30 0} Flow 271: {24 23 0} Flow 277: {24 30 0} {30 18 0} Flow 278: {30 17 0} Flow 286: {25 26 0} Flow 301: {26 18 0} Flow 311: {27 26 0} Flow 313: {28 17 0} Flow 314: {28 29 0} Flow 333: {17 20 0} {20 66 0} 
Flow 340: {29 30 0} Flow 341: {29 31 0} Flow 343: {30 1 0} Flow 350: {30 23 0} Flow 352: {30 29 0} Flow 355: {31 1 0} Flow 369: {31 18 0} Flow 377: {31 29 0} Flow 379: {31 32 0} Flow 380: {32 4 0} Flow 381: {32 23 0} {23 2 0} Flow 389: {32 29 0} Flow 397: {32 31 0} Time taken running everything: 0 seconds
