networks/zoo_78_397/zoo_78_397-lower.sol
<?xml version = "1.0" encoding="UTF-8" standalone="yes"?>
<CPLEXSolution version="1.2">
 <header
   problemName="networks/zoo_78_397/zoo_78_397-lower.lp"
   solutionName="incumbent"
   solutionIndex="-1"
   objectiveValue="63"
   solutionTypeValue="3"
   solutionTypeString="primal"
   solutionStatusValue="101"
   solutionStatusString="integer optimal solution"
   solutionMethodString="mip"
   primalFeasible="1"
   dualFeasible="1"
   MIPNodes="0"
   MIPIterations="843"
   writeLevel="3"/>
 <quality
   epInt="1.0000000000000001e-05"
   epRHS="9.9999999999999995e-07"
   maxIntInfeas="0"
   maxPrimalInfeas="0"
   maxX="1"
   maxSlack="1"/>
 <variables>
  <variable name="Y(4,5)" index="172" value="1"/>
  <variable name="Y(21,28)" index="1144" value="1"/>
  <variable name="Y(26,1)" index="1400" value="1"/>
  <variable name="Y(27,2)" index="1457" value="1"/>
  <variable name="Y(34,17)" index="1861" value="1"/>
  <variable name="Y(37,19)" index="2031" value="1"/>
  <variable name="Y(44,23)" index="2427" value="1"/>
  <variable name="Y(45,1)" index="2464" value="1"/>
  <variable name="Y(54,3)" index="2970" value="1"/>
  <variable name="Y(68,30)" index="3778" value="1"/>
  <variable name="Y(71,6)" index="3925" value="1"/>
  <variable name="Y(76,5)" index="4204" value="1"/>
  <variable name="Y(91,3)" index="5042" value="1"/>
  <variable name="Y(100,4)" index="5547" value="1"/>
  <variable name="Y(104,6)" index="5773" value="1"/>
  <variable name="Y(105,10)" index="5833" value="1"/>
  <variable name="Y(121,8)" index="6727" value="1"/>
  <variable name="Y(124,17)" index="6901" value="1"/>
  <variable name="Y(133,17)" index="7405" value="1"/>
  <variable name="Y(142,12)" index="7906" value="1"/>
  <variable name="Y(143,16)" index="7964" value="1"/>
  <variable name="Y(149,30)" index="8314" value="1"/>
  <variable name="Y(155,32)" index="8652" value="1"/>
  <variable name="Y(161,7)" index="8966" value="1"/>
  <variable name="Y(169,23)" index="9427" value="1"/>
  <variable name="Y(183,10)" index="10201" value="1"/>
  <variable name="Y(201,1)" index="11200" value="1"/>
  <variable name="Y(208,9)" index="11600" value="1"/>
  <variable name="Y(215,16)" index="11996" value="1"/>
  <variable name="Y(219,27)" index="12231" value="1"/>
  <variable name="Y(220,17)" index="12277" value="1"/>
  <variable name="Y(223,18)" index="12446" value="1"/>
  <variable name="Y(236,18)" index="13174" value="1"/>
  <variable name="Y(240,20)" index="13400" value="1"/>
  <variable name="Y(241,17)" index="13453" value="1"/>
  <variable name="Y(245,4)" index="13667" value="1"/>
  <variable name="Y(250,16)" index="13956" value="1"/>
  <variable name="Y(261,10)" index="14569" value="1"/>
  <variable name="Y(265,29)" index="14809" value="1"/>
  <variable name="Y(268,23)" index="14971" value="1"/>
  <variable name="Y(272,23)" index="15195" value="1"/>
  <variable name="Y(281,26)" index="15702" value="1"/>
  <variable name="Y(286,26)" index="15982" value="1"/>
  <variable name="Y(301,18)" index="16814" value="1"/>
  <variable name="Y(311,27)" index="17383" value="1"/>
  <variable name="Y(313,28)" index="17496" value="1"/>
  <variable name="Y(316,29)" index="17665" value="1"/>
  <variable name="Y(333,20)" index="18608" value="1"/>
  <variable name="Y(340,29)" index="19009" value="1"/>
  <variable name="Y(341,29)" index="19065" value="1"/>
  <variable name="Y(347,13)" index="19387" value="1"/>
  <variable name="Y(352,29)" index="19681" value="1"/>
  <variable name="Y(353,31)" index="19739" value="1"/>
  <variable name="Y(354,30)" index="19794" value="1"/>
  <variable name="Y(365,17)" index="20397" value="1"/>
  <variable name="Y(369,31)" index="20635" value="1"/>
  <variable name="Y(373,24)" index="20852" value="1"/>
  <variable name="Y(377,31)" index="21083" value="1"/>
  <variable name="Y(379,31)" index="21195" value="1"/>
  <variable name="Y(381,2)" index="21281" value="1"/>
  <variable name="Y(386,13)" index="21571" value="1"/>
  <variable name="Y(392,22)" index="21914" value="1"/>
  <variable name="Y(397,32)" index="22204" value="1"/>
  <variable name="X(1,2,201)" index="22432" value="1"/>
  <variable name="X(1,3,91)" index="22719" value="1"/>
  <variable name="X(1,4,45)" index="23070" value="1"/>
  <variable name="X(1,10,261)" index="23683" value="1"/>
  <variable name="X(1,23,373)" index="24192" value="1"/>
  <variable name="X(1,29,21)" index="24237" value="1"/>
  <variable name="X(1,30,68)" index="24681" value="1"/>
  <variable name="X(1,31,353)" index="25363" value="1"/>
  <variable name="X(1,47,26)" index="25433" value="1"/>
  <variable name="X(2,1,26)" index="25830" value="1"/>
  <variable name="X(2,3,27)" index="26228" value="1"/>
  <variable name="X(2,23,44)" index="26642" value="1"/>
  <variable name="X(2,48,381)" index="27376" value="1"/>
  <variable name="X(3,1,45)" index="27437" value="1"/>
  <variable name="X(3,23,54)" index="27843" value="1"/>
  <variable name="X(3,49,91)" index="28277" value="1"/>
  <variable name="X(4,1,68)" index="28651" value="1"/>
  <variable name="X(4,13,386)" index="29366" value="1"/>
  <variable name="X(4,31,100)" index="29477" value="1"/>
  <variable name="X(4,32,155)" index="29929" value="1"/>
  <variable name="X(4,50,245)" index="30416" value="1"/>
  <variable name="X(5,6,71)" index="30639" value="1"/>
  <variable name="X(5,7,76)" index="31041" value="1"/>
  <variable name="X(5,51,4)" index="31366" value="1"/>
  <variable name="X(6,5,4)" index="31763" value="1"/>
  <variable name="X(6,9,208)" index="32364" value="1"/>
  <variable name="X(6,10,71)" index="32624" value="1"/>
  <variable name="X(6,13,236)" index="33186" value="1"/>
  <variable name="X(6,19,37)" index="33384" value="1"/>
  <variable name="X(6,52,104)" index="33848" value="1"/>
  <variable name="X(7,10,91)" index="34232" value="1"/>
  <variable name="X(7,13,100)" index="34638" value="1"/>
  <variable name="X(7,53,161)" index="35096" value="1"/>
  <variable name="X(8,10,105)" index="35437" value="1"/>
  <variable name="X(8,13,104)" index="35833" value="1"/>
  <variable name="X(8,54,121)" index="36247" value="1"/>
  <variable name="X(9,55,208)" index="36731" value="1"/>
  <variable name="X(10,1,91)" index="37011" value="1"/>
  <variable name="X(10,6,4)" index="37321" value="1"/>
  <variable name="X(10,7,261)" index="37975" value="1"/>
  <variable name="X(10,8,121)" index="38232" value="1"/>
  <variable name="X(10,9,183)" index="38691" value="1"/>
  <variable name="X(10,17,34)" index="38939" value="1"/>
  <variable name="X(10,56,105)" index="39407" value="1"/>
  <variable name="X(12,17,133)" index="39832" value="1"/>
  <variable name="X(12,58,142)" index="40238" value="1"/>
  <variable name="X(13,4,100)" index="40593" value="1"/>
  <variable name="X(13,6,104)" index="40994" value="1"/>
  <variable name="X(13,7,161)" index="41448" value="1"/>
  <variable name="X(13,8,386)" index="42070" value="1"/>
  <variable name="X(13,18,236)" index="42317" value="1"/>
  <variable name="X(13,26,143)" index="42621" value="1"/>
  <variable name="X(13,59,347)" index="43222" value="1"/>
  <variable name="X(16,17,169)" index="43441" value="1"/>
  <variable name="X(16,18,250)" index="43919" value="1"/>
  <variable name="X(16,22,215)" index="44281" value="1"/>
  <variable name="X(16,26,161)" index="44624" value="1"/>
  <variable name="X(16,62,143)" index="45003" value="1"/>
  <variable name="X(17,10,183)" index="45440" value="1"/>
  <variable name="X(17,12,365)" index="46019" value="1"/>
  <variable name="X(17,16,34)" index="46085" value="1"/>
  <variable name="X(17,18,124)" index="46572" value="1"/>
  <variable name="X(17,20,333)" index="47178" value="1"/>
  <variable name="X(17,22,392)" index="47634" value="1"/>
  <variable name="X(17,26,281)" index="47920" value="1"/>
  <variable name="X(17,28,220)" index="48256" value="1"/>
  <variable name="X(17,29,169)" index="48602" value="1"/>
  <variable name="X(17,30,133)" index="48963" value="1"/>
  <variable name="X(17,31,245)" index="49472" value="1"/>
  <variable name="X(17,63,241)" index="49865" value="1"/>
  <variable name="X(18,12,142)" index="50163" value="1"/>
  <variable name="X(18,13,347)" index="50765" value="1"/>
  <variable name="X(18,16,215)" index="51030" value="1"/>
  <variable name="X(18,17,220)" index="51432" value="1"/>
  <variable name="X(18,26,219)" index="51828" value="1"/>
  <variable name="X(18,29,201)" index="52207" value="1"/>
  <variable name="X(18,30,236)" index="52639" value="1"/>
  <variable name="X(18,31,223)" index="53023" value="1"/>
  <variable name="X(18,64,301)" index="53498" value="1"/>
  <variable name="X(19,6,236)" index="53830" value="1"/>
  <variable name="X(19,65,37)" index="54028" value="1"/>
  <variable name="X(20,17,240)" index="54628" value="1"/>
  <variable name="X(20,66,333)" index="55118" value="1"/>
  <variable name="X(21,17,241)" index="55423" value="1"/>
  <variable name="X(22,16,250)" index="55829" value="1"/>
  <variable name="X(22,17,245)" index="56221" value="1"/>
  <variable name="X(22,68,392)" index="56765" value="1"/>
  <variable name="X(23,1,261)" index="57031" value="1"/>
  <variable name="X(23,2,381)" index="57548" value="1"/>
  <variable name="X(23,3,272)" index="57836" value="1"/>
  <variable name="X(23,24,373)" index="58334" value="1"/>
  <variable name="X(23,29,265)" index="58623" value="1"/>
  <variable name="X(23,30,268)" index="59023" value="1"/>
  <variable name="X(23,32,44)" index="59196" value="1"/>
  <variable name="X(23,69,169)" index="59718" value="1"/>
  <variable name="X(24,23,272)" index="60218" value="1"/>
  <variable name="X(24,30,281)" index="60624" value="1"/>
  <variable name="X(24,70,373)" index="61113" value="1"/>
  <variable name="X(25,26,286)" index="61423" value="1"/>
  <variable name="X(26,13,161)" index="61695" value="1"/>
  <variable name="X(26,16,143)" index="62074" value="1"/>
  <variable name="X(26,17,286)" index="62614" value="1"/>
  <variable name="X(26,18,301)" index="63026" value="1"/>
  <variable name="X(26,27,219)" index="63341" value="1"/>
  <variable name="X(26,72,281)" index="63800" value="1"/>
  <variable name="X(27,26,311)" index="64227" value="1"/>
  <variable name="X(27,73,219)" index="64532" value="1"/>
  <variable name="X(28,17,313)" index="65023" value="1"/>
  <variable name="X(28,29,316)" index="65423" value="1"/>
  <variable name="X(28,74,21)" index="65525" value="1"/>
  <variable name="X(29,1,201)" index="66102" value="1"/>
  <variable name="X(29,17,392)" index="66690" value="1"/>
  <variable name="X(29,18,265)" index="66960" value="1"/>
  <variable name="X(29,23,169)" index="67261" value="1"/>
  <variable name="X(29,28,21)" index="67510" value="1"/>
  <variable name="X(29,30,340)" index="68226" value="1"/>
  <variable name="X(29,31,341)" index="68624" value="1"/>
  <variable name="X(29,32,316)" index="68996" value="1"/>
  <variable name="X(29,75,352)" index="69429" value="1"/>
  <variable name="X(30,1,353)" index="69827" value="1"/>
  <variable name="X(30,17,281)" index="70152" value="1"/>
  <variable name="X(30,18,347)" index="70615" value="1"/>
  <variable name="X(30,23,354)" index="71019" value="1"/>
  <variable name="X(30,24,149)" index="71211" value="1"/>
  <variable name="X(30,29,352)" index="71811" value="1"/>
  <variable name="X(30,76,68)" index="71924" value="1"/>
  <variable name="X(31,1,373)" index="72626" value="1"/>
  <variable name="X(31,4,245)" index="72895" value="1"/>
  <variable name="X(31,17,365)" index="73412" value="1"/>
  <variable name="X(31,18,369)" index="73813" value="1"/>
  <variable name="X(31,29,377)" index="74218" value="1"/>
  <variable name="X(31,32,379)" index="74617" value="1"/>
  <variable name="X(31,77,353)" index="74988" value="1"/>
  <variable name="X(32,4,386)" index="75418" value="1"/>
  <variable name="X(32,23,381)" index="75810" value="1"/>
  <variable name="X(32,29,392)" index="76218" value="1"/>
  <variable name="X(32,31,397)" index="76620" value="1"/>
  <variable name="X(32,78,155)" index="76775" value="1"/>
 </variables>
</CPLEXSolution>
